; SPDX-FileCopyrightText: 2020,2021 University of Rochester
;
; SPDX-License-Identifier: LGPL-3.0-or-later

(define-fun MACHINE_SPECIFIC_execute_div_divide_by_zero_integer_u16 () u16 #xffff)
(define-fun MACHINE_SPECIFIC_execute_div_divide_by_zero_integer_u32 () u32 #xffffffff)
(define-fun MACHINE_SPECIFIC_execute_div_divide_by_zero_integer_u64 () u64 #xffffffffffffffff)
